c read Graph
c width = 23
c time = 72 ms
c width = 6
c time = 114 ms
c width = 6
c time = 4853 ms
s td 31 7 36
b 1 1 2 7
b 2 2 3 7 8
b 3 4 5 11 12
b 4 3 7 8 13
b 5 4 11 12 18
b 6 19 25 26 32
b 7 24 29 30 35
b 8 19 26 32 33
b 9 24 29 34 35
b 10 3 8 9 13 14
b 11 3 4 9 13 14
b 12 4 10 11 17 18
b 13 4 9 13 14 19
b 14 4 10 17 18 24
b 15 19 20 26 27 33
b 16 23 24 28 29 34
b 17 19 20 27 33 34
b 18 4 9 10 14 15 19
b 19 4 10 14 15 19 20
b 20 10 15 16 17 22
b 21 15 20 21 22 27
b 22 17 22 23 24 28 34
b 23 17 22 24 27 28 34
b 24 4 10 15 17 19 20 24
b 25 10 15 17 19 20 22 24
b 26 15 17 19 20 22 24 27
b 27 17 19 20 22 24 27 34
b 28 19 20 22 24 27 34
b 29 30 35 36
b 30 25 31 32
b 31 5 6 12
1 2
2 4
3 31
3 5
4 10
5 12
6 30
6 8
7 29
7 9
8 15
9 16
10 11
11 13
12 14
13 18
14 24
15 17
16 22
17 28
18 19
19 24
20 25
21 26
22 23
23 27
24 25
25 26
26 27
27 28
